20
1 0 7
2 0 6
2 1 4
3 0 4
3 1 8
3 2 7
4 0 3
4 1 3
4 2 5
4 3 5
5 0 5
5 1 5
5 2 2
5 3 2
5 4 5
6 0 7
6 1 4
6 2 2
6 3 5
6 4 5
6 5 7
7 0 5
7 1 1
7 2 5
7 3 6
7 4 1
7 5 2
7 6 7
8 0 3
8 1 8
8 2 7
8 3 1
8 4 6
8 5 7
8 6 6
8 7 8
9 0 6
9 1 3
9 2 3
9 3 1
9 4 4
9 5 3
9 6 8
9 7 8
9 8 7
10 0 8
10 1 4
10 2 8
10 3 4
10 4 5
10 5 6
10 6 8
10 7 4
10 8 2
10 9 7
11 0 6
11 1 1
11 2 4
11 3 1
11 4 8
11 5 5
11 6 6
11 7 2
11 8 3
11 9 2
11 10 7
12 0 5
12 1 2
12 2 7
12 3 1
12 4 4
12 5 6
12 6 7
12 7 1
12 8 5
12 9 7
12 10 5
12 11 1
13 0 2
13 1 5
13 2 1
13 3 5
13 4 3
13 5 2
13 6 4
13 7 6
13 8 5
13 9 1
13 10 1
13 11 6
13 12 8
14 0 4
14 1 4
14 2 3
14 3 5
14 4 1
14 5 1
14 6 7
14 7 8
14 8 6
14 9 7
14 10 1
14 11 2
14 12 8
14 13 1
15 0 3
15 1 2
15 2 1
15 3 8
15 4 8
15 5 1
15 6 1
15 7 5
15 8 8
15 9 8
15 10 4
15 11 5
15 12 3
15 13 4
15 14 2
16 0 7
16 1 6
16 2 4
16 3 8
16 4 3
16 5 2
16 6 4
16 7 1
16 8 1
16 9 8
16 10 6
16 11 1
16 12 3
16 13 7
16 14 5
16 15 2
17 0 3
17 1 8
17 2 8
17 3 1
17 4 7
17 5 3
17 6 1
17 7 7
17 8 4
17 9 7
17 10 5
17 11 2
17 12 6
17 13 1
17 14 8
17 15 3
17 16 4
18 0 8
18 1 3
18 2 3
18 3 2
18 4 5
18 5 8
18 6 7
18 7 2
18 8 8
18 9 6
18 10 8
18 11 8
18 12 3
18 13 8
18 14 8
18 15 3
18 16 6
18 17 3
19 0 8
19 1 4
19 2 6
19 3 7
19 4 5
19 5 8
19 6 4
19 7 3
19 8 6
19 9 1
19 10 4
19 11 4
19 12 8
19 13 3
19 14 8
19 15 3
19 16 8
19 17 7
19 18 4
